c strEdges: 125  randomEdges: 504 
c degrees:  1  2 
c girth: Inf max: -43.604516  
c Hgirth mixed MAXCUT instance
c generated from an undirected graph
c to solve unweighted MaxCut
p cnf 140 1258
46 96 0
-46 -96 0
46 74 0
-46 -74 0
124 85 0
-124 -85 0
6 76 0
-6 -76 0
6 64 0
-6 -64 0
78 30 0
-78 -30 0
78 82 0
-78 -82 0
92 64 0
-92 -64 0
92 86 0
-92 -86 0
59 58 0
-59 -58 0
59 103 0
-59 -103 0
12 25 0
-12 -25 0
84 126 0
-84 -126 0
22 55 0
-22 -55 0
39 107 0
-39 -107 0
39 127 0
-39 -127 0
53 43 0
-53 -43 0
106 132 0
-106 -132 0
106 20 0
-106 -20 0
15 77 0
-15 -77 0
54 24 0
-54 -24 0
54 77 0
-54 -77 0
28 79 0
-28 -79 0
28 23 0
-28 -23 0
113 140 0
-113 -140 0
113 38 0
-113 -38 0
111 131 0
-111 -131 0
111 5 0
-111 -5 0
109 110 0
-109 -110 0
109 131 0
-109 -131 0
105 114 0
-105 -114 0
105 11 0
-105 -11 0
116 20 0
-116 -20 0
116 85 0
-116 -85 0
10 48 0
-10 -48 0
10 139 0
-10 -139 0
32 23 0
-32 -23 0
118 29 0
-118 -29 0
118 41 0
-118 -41 0
122 87 0
-122 -87 0
97 127 0
-97 -127 0
97 126 0
-97 -126 0
50 129 0
-50 -129 0
50 140 0
-50 -140 0
14 8 0
-14 -8 0
14 4 0
-14 -4 0
99 17 0
-99 -17 0
57 98 0
-57 -98 0
57 29 0
-57 -29 0
117 7 0
-117 -7 0
117 34 0
-117 -34 0
89 65 0
-89 -65 0
89 83 0
-89 -83 0
44 18 0
-44 -18 0
44 60 0
-44 -60 0
121 38 0
-121 -38 0
121 96 0
-121 -96 0
49 69 0
-49 -69 0
49 25 0
-49 -25 0
27 16 0
-27 -16 0
93 103 0
-93 -103 0
93 98 0
-93 -98 0
51 73 0
-51 -73 0
51 2 0
-51 -2 0
36 34 0
-36 -34 0
36 87 0
-36 -87 0
1 13 0
-1 -13 0
1 45 0
-1 -45 0
135 4 0
-135 -4 0
135 43 0
-135 -43 0
115 31 0
-115 -31 0
138 45 0
-138 -45 0
138 58 0
-138 -58 0
130 91 0
-130 -91 0
130 71 0
-130 -71 0
52 134 0
-52 -134 0
52 24 0
-52 -24 0
104 82 0
-104 -82 0
104 65 0
-104 -65 0
94 40 0
-94 -40 0
133 71 0
-133 -71 0
133 35 0
-133 -35 0
95 2 0
-95 -2 0
81 11 0
-81 -11 0
81 40 0
-81 -40 0
67 83 0
-67 -83 0
67 31 0
-67 -31 0
137 100 0
-137 -100 0
137 55 0
-137 -55 0
75 119 0
-75 -119 0
75 33 0
-75 -33 0
61 120 0
-61 -120 0
56 5 0
-56 -5 0
128 136 0
-128 -136 0
128 69 0
-128 -69 0
88 139 0
-88 -139 0
88 62 0
-88 -62 0
47 41 0
-47 -41 0
47 18 0
-47 -18 0
90 62 0
-90 -62 0
90 110 0
-90 -110 0
68 21 0
-68 -21 0
68 80 0
-68 -80 0
19 35 0
-19 -35 0
19 73 0
-19 -73 0
3 123 0
-3 -123 0
3 114 0
-3 -114 0
66 74 0
-66 -74 0
66 37 0
-66 -37 0
9 108 0
-9 -108 0
9 132 0
-9 -132 0
102 33 0
-102 -33 0
102 79 0
-102 -79 0
72 60 0
-72 -60 0
72 76 0
-72 -76 0
63 86 0
-63 -86 0
63 107 0
-63 -107 0
125 42 0
-125 -42 0
125 136 0
-125 -136 0
101 70 0
-101 -70 0
101 100 0
-101 -100 0
112 37 0
-112 -37 0
112 30 0
-112 -30 0
26 80 0
-26 -80 0
26 129 0
-26 -129 0
97 34 0
-97 -34 0
97 76 0
-97 -76 0
101 33 0
-101 -33 0
122 61 0
-122 -61 0
73 4 0
-73 -4 0
49 37 0
-49 -37 0
1 69 0
-1 -69 0
66 103 0
-66 -103 0
4 80 0
-4 -80 0
15 62 0
-15 -62 0
24 35 0
-24 -35 0
107 110 0
-107 -110 0
99 81 0
-99 -81 0
90 60 0
-90 -60 0
72 41 0
-72 -41 0
10 99 0
-10 -99 0
28 88 0
-28 -88 0
96 98 0
-96 -98 0
94 128 0
-94 -128 0
90 103 0
-90 -103 0
133 17 0
-133 -17 0
50 65 0
-50 -65 0
102 114 0
-102 -114 0
97 13 0
-97 -13 0
99 66 0
-99 -66 0
84 38 0
-84 -38 0
36 47 0
-36 -47 0
32 57 0
-32 -57 0
69 11 0
-69 -11 0
56 47 0
-56 -47 0
71 108 0
-71 -108 0
79 140 0
-79 -140 0
30 136 0
-30 -136 0
27 139 0
-27 -139 0
87 127 0
-87 -127 0
111 26 0
-111 -26 0
137 86 0
-137 -86 0
99 42 0
-99 -42 0
124 67 0
-124 -67 0
91 62 0
-91 -62 0
6 139 0
-6 -139 0
56 119 0
-56 -119 0
28 52 0
-28 -52 0
51 125 0
-51 -125 0
122 24 0
-122 -24 0
9 70 0
-9 -70 0
124 42 0
-124 -42 0
93 48 0
-93 -48 0
12 65 0
-12 -65 0
117 29 0
-117 -29 0
120 70 0
-120 -70 0
26 110 0
-26 -110 0
103 120 0
-103 -120 0
109 89 0
-109 -89 0
40 100 0
-40 -100 0
73 11 0
-73 -11 0
65 35 0
-65 -35 0
22 58 0
-22 -58 0
68 77 0
-68 -77 0
106 29 0
-106 -29 0
111 2 0
-111 -2 0
43 100 0
-43 -100 0
67 17 0
-67 -17 0
26 132 0
-26 -132 0
57 119 0
-57 -119 0
51 96 0
-51 -96 0
25 127 0
-25 -127 0
77 127 0
-77 -127 0
46 45 0
-46 -45 0
10 114 0
-10 -114 0
12 10 0
-12 -10 0
43 136 0
-43 -136 0
79 8 0
-79 -8 0
53 76 0
-53 -76 0
39 68 0
-39 -68 0
55 5 0
-55 -5 0
85 132 0
-85 -132 0
24 123 0
-24 -123 0
115 129 0
-115 -129 0
77 31 0
-77 -31 0
19 98 0
-19 -98 0
116 99 0
-116 -99 0
118 67 0
-118 -67 0
121 98 0
-121 -98 0
105 127 0
-105 -127 0
39 61 0
-39 -61 0
105 68 0
-105 -68 0
117 126 0
-117 -126 0
88 123 0
-88 -123 0
83 119 0
-83 -119 0
64 139 0
-64 -139 0
90 23 0
-90 -23 0
140 123 0
-140 -123 0
8 83 0
-8 -83 0
39 138 0
-39 -138 0
27 40 0
-27 -40 0
81 65 0
-81 -65 0
128 25 0
-128 -25 0
85 37 0
-85 -37 0
21 33 0
-21 -33 0
99 130 0
-99 -130 0
89 96 0
-89 -96 0
19 45 0
-19 -45 0
61 26 0
-61 -26 0
124 110 0
-124 -110 0
106 140 0
-106 -140 0
67 62 0
-67 -62 0
94 103 0
-94 -103 0
44 62 0
-44 -62 0
106 137 0
-106 -137 0
61 47 0
-61 -47 0
39 122 0
-39 -122 0
124 139 0
-124 -139 0
99 33 0
-99 -33 0
85 16 0
-85 -16 0
64 45 0
-64 -45 0
89 87 0
-89 -87 0
68 3 0
-68 -3 0
11 35 0
-11 -35 0
17 139 0
-17 -139 0
24 74 0
-24 -74 0
84 134 0
-84 -134 0
137 79 0
-137 -79 0
31 100 0
-31 -100 0
63 17 0
-63 -17 0
22 99 0
-22 -99 0
15 114 0
-15 -114 0
113 17 0
-113 -17 0
59 109 0
-59 -109 0
118 82 0
-118 -82 0
46 75 0
-46 -75 0
118 114 0
-118 -114 0
81 74 0
-81 -74 0
61 123 0
-61 -123 0
84 28 0
-84 -28 0
85 69 0
-85 -69 0
133 63 0
-133 -63 0
109 118 0
-109 -118 0
117 1 0
-117 -1 0
25 34 0
-25 -34 0
112 8 0
-112 -8 0
133 112 0
-133 -112 0
79 139 0
-79 -139 0
20 23 0
-20 -23 0
58 17 0
-58 -17 0
67 13 0
-67 -13 0
9 37 0
-9 -37 0
67 16 0
-67 -16 0
53 71 0
-53 -71 0
78 93 0
-78 -93 0
57 21 0
-57 -21 0
109 135 0
-109 -135 0
95 131 0
-95 -131 0
68 69 0
-68 -69 0
76 25 0
-76 -25 0
66 55 0
-66 -55 0
92 7 0
-92 -7 0
111 73 0
-111 -73 0
89 74 0
-89 -74 0
13 71 0
-13 -71 0
117 20 0
-117 -20 0
6 101 0
-6 -101 0
46 8 0
-46 -8 0
1 136 0
-1 -136 0
72 42 0
-72 -42 0
84 137 0
-84 -137 0
68 64 0
-68 -64 0
36 114 0
-36 -114 0
116 63 0
-116 -63 0
111 7 0
-111 -7 0
14 110 0
-14 -110 0
105 91 0
-105 -91 0
59 55 0
-59 -55 0
135 24 0
-135 -24 0
28 101 0
-28 -101 0
94 67 0
-94 -67 0
39 106 0
-39 -106 0
12 86 0
-12 -86 0
46 51 0
-46 -51 0
30 80 0
-30 -80 0
9 41 0
-9 -41 0
31 74 0
-31 -74 0
57 121 0
-57 -121 0
99 9 0
-99 -9 0
85 8 0
-85 -8 0
124 50 0
-124 -50 0
1 20 0
-1 -20 0
95 110 0
-95 -110 0
32 5 0
-32 -5 0
99 98 0
-99 -98 0
117 104 0
-117 -104 0
39 53 0
-39 -53 0
79 31 0
-79 -31 0
57 34 0
-57 -34 0
61 63 0
-61 -63 0
99 36 0
-99 -36 0
137 75 0
-137 -75 0
50 108 0
-50 -108 0
110 73 0
-110 -73 0
18 119 0
-18 -119 0
111 70 0
-111 -70 0
124 130 0
-124 -130 0
28 4 0
-28 -4 0
50 44 0
-50 -44 0
43 71 0
-43 -71 0
2 11 0
-2 -11 0
105 14 0
-105 -14 0
128 33 0
-128 -33 0
15 123 0
-15 -123 0
14 44 0
-14 -44 0
39 95 0
-39 -95 0
36 37 0
-36 -37 0
32 40 0
-32 -40 0
22 53 0
-22 -53 0
82 33 0
-82 -33 0
68 35 0
-68 -35 0
50 83 0
-50 -83 0
40 136 0
-40 -136 0
48 70 0
-48 -70 0
49 129 0
-49 -129 0
63 70 0
-63 -70 0
28 47 0
-28 -47 0
104 127 0
-104 -127 0
93 133 0
-93 -133 0
65 45 0
-65 -45 0
4 70 0
-4 -70 0
53 93 0
-53 -93 0
97 132 0
-97 -132 0
50 88 0
-50 -88 0
126 55 0
-126 -55 0
54 125 0
-54 -125 0
49 8 0
-49 -8 0
137 66 0
-137 -66 0
24 2 0
-24 -2 0
92 35 0
-92 -35 0
97 62 0
-97 -62 0
122 129 0
-122 -129 0
10 89 0
-10 -89 0
72 96 0
-72 -96 0
20 2 0
-20 -2 0
23 34 0
-23 -34 0
67 128 0
-67 -128 0
127 73 0
-127 -73 0
36 26 0
-36 -26 0
16 40 0
-16 -40 0
49 87 0
-49 -87 0
84 18 0
-84 -18 0
125 110 0
-125 -110 0
113 91 0
-113 -91 0
110 17 0
-110 -17 0
105 131 0
-105 -131 0
73 139 0
-73 -139 0
115 94 0
-115 -94 0
22 114 0
-22 -114 0
10 138 0
-10 -138 0
81 127 0
-81 -127 0
46 4 0
-46 -4 0
93 88 0
-93 -88 0
2 5 0
-2 -5 0
69 71 0
-69 -71 0
24 8 0
-24 -8 0
95 132 0
-95 -132 0
131 136 0
-131 -136 0
109 99 0
-109 -99 0
30 126 0
-30 -126 0
14 85 0
-14 -85 0
44 16 0
-44 -16 0
107 35 0
-107 -35 0
44 63 0
-44 -63 0
113 31 0
-113 -31 0
94 17 0
-94 -17 0
97 80 0
-97 -80 0
93 134 0
-93 -134 0
70 37 0
-70 -37 0
28 34 0
-28 -34 0
94 72 0
-94 -72 0
109 61 0
-109 -61 0
97 51 0
-97 -51 0
124 117 0
-124 -117 0
78 28 0
-78 -28 0
19 83 0
-19 -83 0
12 76 0
-12 -76 0
54 74 0
-54 -74 0
104 83 0
-104 -83 0
50 8 0
-50 -8 0
6 39 0
-6 -39 0
93 33 0
-93 -33 0
59 54 0
-59 -54 0
1 30 0
-1 -30 0
124 89 0
-124 -89 0
36 69 0
-36 -69 0
27 72 0
-27 -72 0
78 43 0
-78 -43 0
81 19 0
-81 -19 0
53 67 0
-53 -67 0
92 135 0
-92 -135 0
130 60 0
-130 -60 0
106 56 0
-106 -56 0
121 119 0
-121 -119 0
78 22 0
-78 -22 0
111 17 0
-111 -17 0
64 31 0
-64 -31 0
102 139 0
-102 -139 0
101 37 0
-101 -37 0
104 38 0
-104 -38 0
88 25 0
-88 -25 0
32 66 0
-32 -66 0
22 133 0
-22 -133 0
64 87 0
-64 -87 0
66 9 0
-66 -9 0
106 16 0
-106 -16 0
28 64 0
-28 -64 0
135 30 0
-135 -30 0
24 129 0
-24 -129 0
99 77 0
-99 -77 0
75 41 0
-75 -41 0
93 45 0
-93 -45 0
130 120 0
-130 -120 0
109 125 0
-109 -125 0
140 37 0
-140 -37 0
11 37 0
-11 -37 0
15 5 0
-15 -5 0
26 91 0
-26 -91 0
59 135 0
-59 -135 0
61 96 0
-61 -96 0
112 83 0
-112 -83 0
34 120 0
-34 -120 0
27 128 0
-27 -128 0
131 8 0
-131 -8 0
101 13 0
-101 -13 0
118 88 0
-118 -88 0
36 80 0
-36 -80 0
51 103 0
-51 -103 0
94 79 0
-94 -79 0
14 117 0
-14 -117 0
6 78 0
-6 -78 0
107 139 0
-107 -139 0
124 121 0
-124 -121 0
47 107 0
-47 -107 0
53 74 0
-53 -74 0
5 35 0
-5 -35 0
9 17 0
-9 -17 0
92 52 0
-92 -52 0
93 41 0
-93 -41 0
49 82 0
-49 -82 0
83 5 0
-83 -5 0
122 2 0
-122 -2 0
43 70 0
-43 -70 0
19 125 0
-19 -125 0
55 2 0
-55 -2 0
28 5 0
-28 -5 0
55 33 0
-55 -33 0
116 123 0
-116 -123 0
54 120 0
-54 -120 0
112 43 0
-112 -43 0
25 74 0
-25 -74 0
102 71 0
-102 -71 0
30 16 0
-30 -16 0
26 30 0
-26 -30 0
30 37 0
-30 -37 0
59 60 0
-59 -60 0
23 38 0
-23 -38 0
50 73 0
-50 -73 0
26 35 0
-26 -35 0
66 126 0
-66 -126 0
39 85 0
-39 -85 0
93 51 0
-93 -51 0
92 108 0
-92 -108 0
57 129 0
-57 -129 0
69 91 0
-69 -91 0
133 62 0
-133 -62 0
138 81 0
-138 -81 0
15 86 0
-15 -86 0
65 74 0
-65 -74 0
109 52 0
-109 -52 0
99 82 0
-99 -82 0
72 134 0
-72 -134 0
22 126 0
-22 -126 0
26 29 0
-26 -29 0
84 36 0
-84 -36 0
22 7 0
-22 -7 0
135 102 0
-135 -102 0
46 56 0
-46 -56 0
99 61 0
-99 -61 0
111 101 0
-111 -101 0
90 112 0
-90 -112 0
8 31 0
-8 -31 0
45 108 0
-45 -108 0
111 116 0
-111 -116 0
133 107 0
-133 -107 0
52 125 0
-52 -125 0
66 21 0
-66 -21 0
133 70 0
-133 -70 0
54 95 0
-54 -95 0
101 123 0
-101 -123 0
28 3 0
-28 -3 0
106 129 0
-106 -129 0
23 13 0
-23 -13 0
133 24 0
-133 -24 0
56 134 0
-56 -134 0
36 85 0
-36 -85 0
94 68 0
-94 -68 0
73 35 0
-73 -35 0
96 127 0
-96 -127 0
134 80 0
-134 -80 0
81 8 0
-81 -8 0
137 56 0
-137 -56 0
10 33 0
-10 -33 0
53 49 0
-53 -49 0
104 31 0
-104 -31 0
28 56 0
-28 -56 0
131 134 0
-131 -134 0
116 16 0
-116 -16 0
59 131 0
-59 -131 0
133 90 0
-133 -90 0
124 102 0
-124 -102 0
137 47 0
-137 -47 0
32 56 0
-32 -56 0
82 70 0
-82 -70 0
106 21 0
-106 -21 0
113 127 0
-113 -127 0
20 73 0
-20 -73 0
81 101 0
-81 -101 0
46 129 0
-46 -129 0
53 80 0
-53 -80 0
63 43 0
-63 -43 0
76 17 0
-76 -17 0
55 43 0
-55 -43 0
90 114 0
-90 -114 0
44 71 0
-44 -71 0
77 38 0
-77 -38 0
59 47 0
-59 -47 0
54 1 0
-54 -1 0
47 64 0
-47 -64 0
57 127 0
-57 -127 0
127 31 0
-127 -31 0
50 64 0
-50 -64 0
57 126 0
-57 -126 0
103 35 0
-103 -35 0
79 136 0
-79 -136 0
16 60 0
-16 -60 0
87 108 0
-87 -108 0
54 129 0
-54 -129 0
12 22 0
-12 -22 0
104 80 0
-104 -80 0
51 23 0
-51 -23 0
124 133 0
-124 -133 0
126 31 0
-126 -31 0
115 137 0
-115 -137 0
84 76 0
-84 -76 0
89 139 0
-89 -139 0
67 82 0
-67 -82 0
84 66 0
-84 -66 0
129 13 0
-129 -13 0
79 70 0
-79 -70 0
106 37 0
-106 -37 0
64 86 0
-64 -86 0
137 107 0
-137 -107 0
63 85 0
-63 -85 0
4 37 0
-4 -37 0
109 130 0
-109 -130 0
89 68 0
-89 -68 0
51 11 0
-51 -11 0
20 45 0
-20 -45 0
76 34 0
-76 -34 0
97 36 0
-97 -36 0
46 58 0
-46 -58 0
103 123 0
-103 -123 0
138 73 0
-138 -73 0
49 85 0
-49 -85 0
47 23 0
-47 -23 0
85 134 0
-85 -134 0
6 29 0
-6 -29 0
93 43 0
-93 -43 0
20 100 0
-20 -100 0
26 79 0
-26 -79 0
54 117 0
-54 -117 0
94 131 0
-94 -131 0
91 71 0
-91 -71 0
102 74 0
-102 -74 0
46 121 0
-46 -121 0
51 139 0
-51 -139 0
117 61 0
-117 -61 0
17 41 0
-17 -41 0
135 91 0
-135 -91 0
4 139 0
-4 -139 0
59 83 0
-59 -83 0
116 94 0
-116 -94 0
104 87 0
-104 -87 0
100 86 0
-100 -86 0
27 25 0
-27 -25 0
76 80 0
-76 -80 0
78 31 0
-78 -31 0
117 75 0
-117 -75 0
28 44 0
-28 -44 0
66 33 0
-66 -33 0
74 86 0
-74 -86 0
106 101 0
-106 -101 0
24 82 0
-24 -82 0
126 87 0
-126 -87 0
99 117 0
-99 -117 0
61 23 0
-61 -23 0
12 38 0
-12 -38 0
13 123 0
-13 -123 0
